; benchmark generated from python API
(set-info :status unknown)
(declare-fun C () Real)
(declare-fun L_0 () Real)
(declare-fun A_1 () Real)
(declare-fun S_3 () Real)
(declare-fun A_3 () Real)
(declare-fun S_5 () Real)
(declare-fun S_4 () Real)
(declare-fun A_0 () Real)
(declare-fun A_4 () Real)
(declare-fun S_2 () Real)
(declare-fun S_1 () Real)
(declare-fun S_0 () Real)
(declare-fun A_5 () Real)
(declare-fun A_2 () Real)
(assert
 (let ((?x6545 (* (/ 1.0 2.0) A_2)))
 (let ((?x3751 (* (- (/ 1.0 2.0)) A_0)))
 (let ((?x4597 (* (/ 1.0 2.0) S_0)))
 (let ((?x1741 (* (- 1.0) S_4)))
 (let ((?x3664 (* (- (/ 1.0 2.0)) A_5)))
 (let ((?x4620 (* (/ 3.0 2.0) C)))
 (let ((?x3752 (* (/ 1.0 2.0) S_5)))
 (let ((?x3784 (* (/ 1.0 2.0) A_1)))
 (let (($x7281 (<= (+ A_0 (* 3.0 C) (* (- 1.0) L_0) ?x1741) 0.0)))
 (let (($x6207 (<= (+ (* 2.0 C) A_1 ?x1741 (* (- 1.0) L_0)) 0.0)))
 (let (($x4101 (<= (+ S_5 A_3 (* (- 1.0) A_5) ?x1741) 0.0)))
 (let (($x2573 (<= (+ A_1 C (* (- 1.0) A_2)) 0.0)))
 (let (($x2506 (not $x2573)))
 (let (($x793638 (or $x2506 $x4101 $x6207 $x7281 (<= (+ ?x3784 ?x3752 ?x4620 ?x3664 ?x1741 ?x4597 ?x3751 ?x6545) 0.0))))
 (let ((?x3742 (* (/ 1.0 2.0) A_4)))
 (let ((?x6534 (* (- (/ 1.0 2.0)) A_2)))
 (let ((?x6551 (* (/ 1.0 2.0) S_1)))
 (let ((?x3750 (* (/ 1.0 2.0) A_3)))
 (let ((?x3670 (* (- (/ 1.0 2.0)) S_5)))
 (let (($x142043 (<= (+ ?x3670 ?x3750 C ?x3664 ?x6551 ?x6534 ?x3742) 0.0)))
 (let (($x28246 (<= (+ (* (- 1.0) S_5) A_3 C (* (- 1.0) A_1) S_1) 0.0)))
 (let (($x6860 (<= (+ (* (- 1.0) S_5) (* 3.0 C) S_1) 0.0)))
 (let (($x3476 (<= (+ A_4 (* (- 1.0) A_5)) 0.0)))
 (let ((?x1436 (* (- 1.0) A_2)))
 (let ((?x1847 (* (- 1.0) S_1)))
 (let ((?x6918 (* 2.0 S_3)))
 (let ((?x1358 (* (- 1.0) A_1)))
 (let ((?x1707 (* (- 3.0) C)))
 (let ((?x1819 (* (- 1.0) S_5)))
 (let (($x36324 (<= (+ ?x1819 A_4 (* (- 2.0) C) ?x1358 ?x6918 ?x1847 A_0 (* (- 1.0) A_3)) 0.0)))
 (let (($x10405 (<= (+ ?x1819 C S_3) 0.0)))
 (let (($x3262 (<= (+ S_3 ?x1358 ?x1847 A_0 (* (- 2.0) C)) 0.0)))
 (let (($x826627 (or $x3262 $x10405 (<= (+ ?x1819 A_4 (* (- 2.0) C) ?x1358 S_3) 0.0) $x36324 (<= (+ ?x1819 A_4 ?x1707 ?x1358 ?x6918 ?x1847 A_0 ?x1436) 0.0))))
 (let ((?x54996 (* (- (/ 1.0 3.0)) A_2)))
 (let ((?x55740 (* (/ 2.0 3.0) C)))
 (let ((?x51887 (* (/ 1.0 3.0) A_3)))
 (let ((?x46855 (* (- (/ 1.0 3.0)) S_5)))
 (let ((?x56992 (+ ?x46855 ?x51887 ?x55740 (* (- (/ 2.0 3.0)) A_5) (* (/ 1.0 3.0) A_1) (* (/ 1.0 3.0) S_0) (* (- (/ 1.0 3.0)) A_0) ?x54996 (* (/ 2.0 3.0) A_4))))
 (let (($x55720 (<= ?x56992 0.0)))
 (let (($x26076 (<= (+ ?x3784 ?x3670 ?x4620 ?x3664 ?x4597 ?x3751 ?x3742) 0.0)))
 (let (($x11072 (<= (+ ?x3670 ?x3750 ?x4620 ?x3664 (* (/ 1.0 2.0) A_0) (* (- (/ 1.0 2.0)) L_0) ?x6534 ?x3742) 0.0)))
 (let (($x7529 (<= (+ ?x1819 A_0 (* 4.0 C) (* (- 1.0) L_0)) 0.0)))
 (let (($x4598 (<= (+ ?x3670 ?x3750 (* (/ 1.0 2.0) C) ?x3664 ?x3751 ?x4597 ?x3742) 0.0)))
 (let (($x4016 (<= (+ ?x1819 A_3 C (* (- 1.0) L_0)) 0.0)))
 (let (($x1869 (<= (+ C A_0 ?x1358) 0.0)))
 (let (($x1749 (not $x1869)))
 (let (($x2065 (<= (+ ?x1436 (* (- 1.0) C) A_3) 0.0)))
 (let (($x830343 (or $x2506 $x3476 $x6860 (<= (+ ?x1819 A_3 (* 2.0 C) S_1 ?x1436) 0.0))))
 (let (($x14869 (<= (+ ?x1819 A_4 ?x1358 S_1) 0.0)))
 (let (($x6777 (<= (+ ?x1819 A_4 C ?x1358 S_1 A_0 ?x1436) 0.0)))
 (let (($x3256 (<= (+ ?x1358 A_0) 0.0)))
 (let (($x2101 (not $x2065)))
 (let (($x1867 (<= (+ C A_3 (* (- 1.0) A_4)) 0.0)))
 (let (($x791933 (or $x2506 $x4101 $x6207 $x7281 (<= (+ ?x3784 ?x3752 C ?x3664 ?x1741 ?x4597 ?x3751 ?x3750) 0.0))))
 (let (($x6836 (<= (+ C (* (- 1.0) S_3) S_1) 0.0)))
 (let (($x5575 (<= (+ S_5 (* (- 1.0) A_5) A_3 (* (- 1.0) S_3) (* (- 1.0) C)) 0.0)))
 (let (($x1873 (<= (+ A_2 (* (- 1.0) C) ?x1358) 0.0)))
 (let (($x29181 (<= (+ ?x1819 A_4 ?x1358 (* 2.0 S_2) ?x1847 A_0 (* (- 1.0) A_3)) 0.0)))
 (let (($x17524 (<= (+ (* (- 2.0) C) A_3 ?x1358 S_2 ?x1847 A_0 ?x1436) 0.0)))
 (let (($x17224 (<= (+ ?x1819 A_4 (* (- 1.0) C) ?x1358 (* 2.0 S_2) ?x1847 A_0 ?x1436) 0.0)))
 (let (($x17118 (<= (+ ?x1819 A_4 (* (- 1.0) C) ?x1358 S_2) 0.0)))
 (let (($x3826 (<= (+ A_3 (* (- 2.0) C) ?x1358) 0.0)))
 (let (($x3535 (<= (+ ?x1358 S_2 ?x1847 A_0 (* (- 1.0) C)) 0.0)))
 (let (($x2542 (<= (+ ?x1819 (* 2.0 C) S_2) 0.0)))
 (let (($x1863 (<= (+ A_2 (* 2.0 C) (* (- 1.0) A_4)) 0.0)))
 (let (($x1715 (not $x1863)))
 (let (($x93583 (<= (+ ?x3752 ?x3750 ?x3664 ?x1741 ?x3784 (* (- (/ 1.0 2.0)) L_0) ?x6534 ?x3742) 0.0)))
 (let (($x24260 (<= (+ ?x3784 ?x3752 (* (/ 1.0 2.0) C) ?x3664 ?x1741 ?x4597 ?x3751 ?x3742) 0.0)))
 (let ((?x3753 (* (- (/ 1.0 2.0)) L_0)))
 (let ((?x3722 (* (/ 1.0 2.0) A_0)))
 (let ((?x4595 (* (/ 1.0 2.0) C)))
 (let (($x11073 (<= (+ ?x3752 ?x3750 ?x4595 ?x3664 ?x1741 ?x3722 ?x3753 ?x6534 ?x3742) 0.0)))
 (let ((?x1092 (* (- 1.0) A_0)))
 (let ((?x1787 (* (- 1.0) C)))
 (let ((?x10939 (+ (* 2.0 S_5) A_3 ?x1787 (* (- 2.0) A_5) (* (- 3.0) S_4) A_1 S_0 ?x1092 ?x1436 (* 2.0 A_4))))
 (let (($x10923 (<= ?x10939 0.0)))
 (let (($x4567 (<= (+ ?x3752 ?x3750 (* (- (/ 1.0 2.0)) C) ?x3664 ?x1741 ?x3751 ?x4597 ?x3742) 0.0)))
 (let (($x4017 (<= (+ A_3 ?x1741 (* (- 1.0) L_0)) 0.0)))
 (let (($x3402 (<= (+ S_5 A_4 (* (- 1.0) A_5) ?x1741 ?x1787) 0.0)))
 (let (($x796545 (or $x2506 $x4017 $x4567 $x7281 $x11073 (<= (+ ?x1787 S_4 ?x1092 L_0 A_1 (* (- 1.0) A_3)) 0.0))))
 (let (($x1875 (<= (+ A_2 C (* (- 1.0) A_3)) 0.0)))
 (let (($x1737 (not $x1875)))
 (let (($x141784 (<= (+ ?x3752 ?x3750 ?x3664 ?x1741 ?x6551 ?x6534 ?x3742) 0.0)))
 (let (($x2688 (<= (+ (* 2.0 C) ?x1741 S_1) 0.0)))
 (let (($x114126 (<= (+ ?x3752 ?x3750 (* (- (/ 1.0 2.0)) C) ?x3664 ?x1741 (* (/ 1.0 2.0) S_2) ?x6534 ?x3742) 0.0)))
 (let (($x2494 (<= (+ C ?x1741 S_2) 0.0)))
 (let (($x21967 (<= (+ ?x3784 ?x3752 (* (- (/ 1.0 2.0)) C) ?x3664 (* (- 1.0) S_3) ?x4597 ?x3751 ?x3742) 0.0)))
 (let (($x5935 (<= (+ S_5 A_4 (* (- 1.0) A_5) (* (- 1.0) S_3) (* (- 2.0) C)) 0.0)))
 (let (($x3655 (<= (+ (* (- 1.0) S_3) (* (- 1.0) L_0) A_0 (* 2.0 C)) 0.0)))
 (let (($x3045 (<= (+ (* (- 1.0) S_3) A_1 (* (- 1.0) L_0) C) 0.0)))
 (let (($x19636 (<= (+ ?x3784 ?x3670 (* 2.0 C) ?x3664 ?x4597 ?x3751 ?x3750) 0.0)))
 (let (($x8207 (<= (+ A_1 ?x1819 (* 3.0 C) (* (- 1.0) L_0)) 0.0)))
 (let (($x11464 (<= (+ A_3 C (* (- 1.0) A_5)) 0.0)))
 (let (($x2389 (<= (+ A_2 (* 2.0 C) (* (- 1.0) A_5)) 0.0)))
 (let (($x29764 (<= (+ ?x1819 A_4 ?x1358 (* 2.0 C) S_1 A_0 (* (- 1.0) A_3)) 0.0)))
 (let (($x841525 (or $x2101 $x2573 $x3476 (<= (+ ?x3670 ?x3750 C ?x3664 ?x3722 ?x3753 (* (- (/ 1.0 2.0)) A_1) ?x3742) 0.0) $x4016 $x4598 $x7529)))
 (let (($x106887 (<= (+ ?x6545 ?x3752 ?x4595 ?x3664 ?x1741 ?x3722 ?x3753 (* (- (/ 1.0 2.0)) A_1) ?x3742) 0.0)))
 (let (($x19737 (<= (+ ?x6545 ?x3752 ?x3664 ?x1741 ?x4597 ?x3751 ?x3742) 0.0)))
 (let (($x1716 (not $x1873)))
 (let (($x1711 (<= (+ A_2 C ?x1741 (* (- 1.0) L_0)) 0.0)))
 (let (($x303910 (or $x1711 $x1716 $x3402 (<= (+ ?x3752 ?x3750 ?x3664 ?x1741 ?x3722 ?x3753 (* (- (/ 1.0 2.0)) A_1) ?x3742) 0.0) $x4017 $x4567 $x7281 $x19737 $x106887)))
 (let (($x41294 (<= (+ ?x6545 ?x3670 (* 2.0 C) ?x3664 ?x3722 ?x3753 (* (- (/ 1.0 2.0)) A_1) ?x3750) 0.0)))
 (let (($x39760 (<= (+ ?x6545 ?x3670 ?x4620 ?x3664 ?x4597 ?x3751 ?x3750) 0.0)))
 (let (($x3619 (<= (+ ?x1436 A_0 (* 2.0 C)) 0.0)))
 (let (($x1834 (<= (+ A_2 ?x1819 (* 2.0 C) (* (- 1.0) L_0)) 0.0)))
 (let (($x27936 (<= (+ ?x1819 A_4 (* (- 1.0) A_3) S_3) 0.0)))
 (let (($x9491 (<= (+ (* (- 1.0) A_3) (* (- 2.0) C) A_2 S_3 L_0 ?x1092) 0.0)))
 (let (($x18518 (<= (+ ?x1819 A_3 ?x1358 (* 2.0 S_2) ?x1847 A_0 ?x1436) 0.0)))
 (let (($x18331 (<= (+ ?x1819 A_3 ?x1358 S_2) 0.0)))
 (let (($x4178 (<= (+ A_4 ?x1707 ?x1358) 0.0)))
 (let (($x2351 (<= (+ A_2 S_5 (* (- 1.0) A_5) (* (- 1.0) S_3)) 0.0)))
 (let (($x835518 (or $x2351 $x3045 $x3655 (<= (+ ?x3784 ?x3752 ?x4595 ?x3664 (* (- 1.0) S_3) ?x4597 ?x3751 ?x6545) 0.0))))
 (let (($x35149 (<= (+ ?x3752 ?x3664 ?x6545 (* (- (/ 1.0 2.0)) C) (* (- 1.0) S_3) ?x4597 ?x3751 ?x3750) 0.0)))
 (let (($x1839 (<= (+ A_2 (* (- 1.0) S_3) (* (- 1.0) L_0)) 0.0)))
 (let (($x238607 (or $x1716 $x1839 (not (<= (+ ?x1787 (* (- 2.0) A_0) L_0 S_0 A_1) 0.0)) $x3655 $x5575 $x35149)))
 (let (($x39747 (<= (+ ?x6545 ?x3752 ?x3664 (* (- 1.0) S_3) ?x3722 ?x3753 (* (- (/ 1.0 2.0)) A_1) ?x3750) 0.0)))
 (let (($x2344 (<= (+ ?x1787 (* (- 2.0) A_0) L_0 S_0 A_1) 0.0)))
 (let (($x40105 (<= (+ A_1 (* (- 1.0) S_2) S_0 ?x1092) 0.0)))
 (let (($x39949 (not $x40105)))
 (let (($x8855 (<= (+ ?x3784 ?x3752 (* (- (/ 1.0 2.0)) C) ?x3664 (* (- 1.0) S_2) ?x4597 ?x3751 ?x6545) 0.0)))
 (let (($x1844 (<= (+ C A_0 (* (- 1.0) S_2) (* (- 1.0) L_0)) 0.0)))
 (let (($x93538 (<= (+ ?x3670 ?x3750 C ?x3664 ?x3784 ?x3753 ?x6534 ?x3742) 0.0)))
 (let (($x91392 (<= (+ ?x1819 A_3 (* 2.0 C) ?x1358 S_1 A_0 ?x1436) 0.0)))
 (let (($x1753 (not $x1867)))
 (let (($x4230 (<= (+ S_5 (* (- 1.0) A_4) ?x1787 A_3 ?x1741) 0.0)))
 (let (($x839782 (or $x2506 $x4230 (<= (+ ?x3752 (* (- (/ 1.0 2.0)) A_4) C ?x3784 ?x1741 ?x4597 ?x3751 ?x6545) 0.0) $x6207 $x7281)))
 (let (($x39074 (<= (+ ?x1819 A_4 ?x1787 ?x1436 ?x6918 ?x1847 A_0 (* (- 1.0) A_3)) 0.0)))
 (let (($x3283 (<= (+ ?x1436 S_3 ?x1847 A_0 ?x1787) 0.0)))
 (let ((?x1837 (* (- 1.0) S_3)))
 (let ((?x8087 (* (/ 1.0 2.0) S_4)))
 (let ((?x3758 (* (- (/ 1.0 2.0)) A_4)))
 (let (($x5520 (<= (+ (* (- 1.0) A_4) A_3 S_4 ?x1837 ?x1787) 0.0)))
 (let (($x831851 (or $x2506 $x3045 $x3655 $x5520 (<= (+ ?x3758 ?x3784 ?x8087 ?x1837 ?x4597 ?x3751 ?x3750) 0.0))))
 (let (($x17878 (<= (+ ?x3758 ?x1787 ?x3784 ?x8087 (* (- 1.0) S_2) ?x4597 ?x3751 ?x3750) 0.0)))
 (let (($x5288 (<= (+ (* (- 1.0) A_4) A_3 S_4 (* (- 1.0) S_2) (* (- 2.0) C)) 0.0)))
 (let (($x294516 (or $x2506 $x4230 $x6207 $x7281 (<= (+ ?x3752 ?x3758 ?x4595 ?x3784 ?x1741 ?x4597 ?x3751 ?x3750) 0.0))))
 (let (($x2129 (<= (+ A_4 ?x1787 (* (- 1.0) A_3)) 0.0)))
 (let (($x2018 (not $x2129)))
 (let (($x829819 (or $x2506 $x3655 (<= (+ (* (- 1.0) A_4) C A_1 S_4 ?x1837) 0.0))))
 (let (($x8849 (<= (+ ?x3784 ?x3670 (* (/ 5.0 2.0) C) ?x3664 ?x4597 ?x3751 ?x6545) 0.0)))
 (let (($x223071 (or $x2389 $x3476 $x7529 $x11464 (<= (+ A_1 (* 3.0 C) (* (- 1.0) A_5)) 0.0))))
 (let (($x42272 (<= (+ ?x3758 ?x8087 ?x3784 (* (- (/ 1.0 2.0)) C) (* (- 1.0) S_2) ?x4597 ?x3751 ?x6545) 0.0)))
 (let (($x2131 (<= (+ (* (- 1.0) A_4) S_4 A_2 ?x1787 (* (- 1.0) S_2)) 0.0)))
 (let (($x5419 (<= (+ S_5 (* (- 1.0) A_5) A_3 (* (- 1.0) S_2) (* (- 2.0) C)) 0.0)))
 (let (($x2826 (<= (+ A_1 (* (- 1.0) S_2) (* (- 1.0) L_0)) 0.0)))
 (let (($x207125 (or $x1844 $x2826 $x5419 (<= (+ ?x3784 ?x3752 ?x1787 ?x3664 (* (- 1.0) S_2) ?x4597 ?x3751 ?x3750) 0.0))))
 (let (($x50509 (<= (+ S_5 A_4 (* (- 1.0) A_5) (* (- 1.0) A_3) A_2 ?x1837 ?x1787) 0.0)))
 (let ((?x3762 (* (- (/ 1.0 2.0)) A_1)))
 (let ((?x3680 (* (- (/ 1.0 2.0)) A_3)))
 (let (($x5196 (<= (+ ?x3752 ?x3680 (* (- (/ 1.0 2.0)) C) ?x3664 A_2 ?x1837 ?x3751 ?x4597 ?x3742) 0.0)))
 (let (($x827597 (or $x1716 $x1839 $x3655 $x5196 (<= (+ ?x3752 ?x3680 ?x3664 A_2 ?x1837 ?x3722 ?x3753 ?x3762 ?x3742) 0.0) $x50509)))
 (let (($x106878 (<= (+ ?x6545 ?x3670 ?x4620 ?x3664 ?x3722 ?x3753 ?x3762 ?x3742) 0.0)))
 (let (($x825473 (or $x1834 $x2065 $x2573 $x3476 $x7529 (<= (+ ?x6545 ?x3670 C ?x3664 ?x4597 ?x3751 ?x3742) 0.0) $x106878)))
 (let (($x4220 (<= (+ (* (- 1.0) A_4) A_3) 0.0)))
 (let (($x223317 (or $x2506 $x4220 $x7281 $x6207 (<= (+ ?x3758 C ?x3784 (* (- (/ 1.0 2.0)) S_4) ?x4597 ?x3751 ?x3750) 0.0))))
 (let (($x809234 (or $x1844 (<= (+ S_5 (* (- 1.0) A_5) A_2 (* (- 1.0) S_2) ?x1787) 0.0) $x40105)))
 (let (($x105775 (<= (+ ?x6545 ?x3752 (* (- (/ 1.0 2.0)) C) ?x3664 ?x1837 ?x3722 ?x3753 ?x3762 ?x3742) 0.0)))
 (let (($x218551 (or $x1716 $x1839 $x3655 $x5935 (<= (+ ?x6545 ?x3752 ?x1787 ?x3664 ?x1837 ?x4597 ?x3751 ?x3742) 0.0) $x105775)))
 (let (($x41511 (<= (+ ?x1819 A_4 ?x1436 S_2) 0.0)))
 (let ((?x1177 (* (- 1.0) A_3)))
 (let ((?x10395 (* 2.0 S_2)))
 (let (($x31320 (<= (+ ?x1819 A_4 C ?x1436 ?x10395 ?x1847 A_0 ?x1177) 0.0)))
 (let (($x3245 (<= (+ ?x1436 S_2 ?x1847 A_0) 0.0)))
 (let (($x6073 (<= (+ S_5 (* (- 1.0) A_4) A_3 ?x1837 (* (- 2.0) C)) 0.0)))
 (let (($x206487 (or $x1873 $x3045 $x3655 $x6073 (<= (+ ?x3752 ?x3758 (* (- (/ 1.0 2.0)) C) ?x3784 ?x1837 ?x4597 ?x3751 ?x3750) 0.0))))
 (let (($x206260 (or $x2542 $x3476 $x18331 (<= (+ ?x1819 A_3 C (* (- 1.0) A_5) S_2 ?x1436 A_4) 0.0))))
 (let (($x22886 (<= (+ ?x3784 ?x3752 (* (- (/ 3.0 2.0)) C) ?x3664 (* (- 1.0) S_2) ?x4597 ?x3751 ?x3742) 0.0)))
 (let (($x5426 (<= (+ S_5 A_4 (* (- 1.0) A_5) (* (- 1.0) S_2) ?x1707) 0.0)))
 (let (($x799954 (or $x1711 $x2573 $x4220 $x7281 (<= (+ ?x3758 ?x4595 (* (- (/ 1.0 2.0)) S_4) ?x6545 ?x4597 ?x3751 ?x3750) 0.0) (<= (+ ?x3758 (* (- (/ 1.0 2.0)) S_4) ?x6545 C ?x3722 ?x3753 ?x3762 ?x3750) 0.0))))
 (let (($x17229 (<= (+ ?x1787 A_3 ?x1741 ?x1358 S_2) 0.0)))
 (let ((?x1189 (* (- 1.0) A_5)))
 (let (($x10987 (<= (+ S_5 A_3 ?x1787 ?x1189 (* (- 2.0) S_4) S_2 ?x1436 A_4) 0.0)))
 (let (($x3672 (not $x3826)))
 (let (($x2823 (<= (+ S_5 (* (- 1.0) A_4) A_2 ?x1837 ?x1787) 0.0)))
 (let (($x193101 (or $x2823 $x3045 $x3655 (<= (+ ?x3752 ?x3758 ?x3784 ?x1837 ?x4597 ?x3751 ?x6545) 0.0))))
 (let (($x2575 (<= (+ A_1 (* 2.0 C) ?x1177) 0.0)))
 (let (($x41380 (<= (+ ?x1819 A_4 (* (- 2.0) C) ?x1436 ?x6918 ?x1092 L_0 A_1 ?x1177) 0.0)))
 (let (($x37879 (<= (+ ?x1819 A_4 ?x1787 ?x1436 S_3) 0.0)))
 (let (($x808162 (or (<= (+ ?x1436 S_3 A_1 L_0 ?x1092 (* (- 2.0) C)) 0.0) $x10405 $x37879 $x41380)))
 (let (($x184371 (or $x2506 $x4220 $x7281 (<= (+ (* (- 1.0) A_4) A_1 (* 2.0 C)) 0.0))))
 (let (($x34962 (<= (+ ?x3752 ?x3758 (* (- (/ 1.0 2.0)) C) ?x6545 ?x1837 ?x3722 ?x3753 ?x3762 ?x3750) 0.0)))
 (let (($x190460 (or $x1716 $x1839 $x3655 $x6073 (<= (+ ?x3752 ?x3758 ?x1787 ?x6545 ?x1837 ?x4597 ?x3751 ?x3750) 0.0) $x34962)))
 (let (($x806122 (or $x1711 $x2573 $x4101 $x7281 (<= (+ ?x3752 ?x3664 ?x1741 ?x6545 ?x4595 ?x4597 ?x3751 ?x3750) 0.0) (<= (+ ?x6545 ?x3752 C ?x3664 ?x1741 ?x3722 ?x3753 ?x3762 ?x3750) 0.0))))
 (let (($x2854 (<= (+ S_5 ?x1177 A_2 ?x1837 (* (- 2.0) C)) 0.0)))
 (let (($x818707 (or $x2854 $x3045 $x3655 (<= (+ ?x3752 ?x3680 (* (- (/ 1.0 2.0)) C) ?x3784 ?x1837 ?x4597 ?x3751 ?x6545) 0.0))))
 (let (($x4681 (<= (+ ?x1177 ?x1787 S_4 A_2 ?x1837) 0.0)))
 (let (($x185084 (or $x3045 $x3655 $x4681 (<= (+ ?x1177 S_4 A_1 (* (- 2.0) S_3) S_0 ?x1092 A_2) 0.0))))
 (let (($x187109 (or $x1844 $x2826 (<= (+ ?x1177 S_4 A_2 (* (- 1.0) S_2) (* (- 2.0) C)) 0.0) (<= (+ ?x3680 ?x1787 ?x8087 ?x3784 (* (- 1.0) S_2) ?x4597 ?x3751 ?x6545) 0.0))))
 (let (($x179601 (or $x2506 $x4230 $x7281 (<= (+ S_5 (* (- 1.0) A_4) C A_1 ?x1741) 0.0))))
 (let ((?x1842 (* (- 1.0) S_2)))
 (let ((?x19824 (* (/ 1.0 2.0) S_3)))
 (let ((?x4599 (* (- (/ 1.0 2.0)) C)))
 (let (($x45689 (<= (+ ?x3680 ?x4599 ?x3784 ?x19824 ?x1842 ?x4597 ?x3751 ?x6545) 0.0)))
 (let (($x40366 (<= (+ ?x1787 ?x1177 A_2 S_3 ?x1842) 0.0)))
 (let (($x55137 (<= (+ ?x3752 ?x3680 ?x4595 ?x3664 A_1 (* (- (/ 3.0 2.0)) S_3) S_0 ?x1092 ?x6545 ?x3742) 0.0)))
 (let (($x803706 (or $x2506 $x3045 $x3655 (<= (+ ?x3752 ?x3680 ?x4595 ?x3664 A_1 ?x1837 ?x4597 ?x3751 ?x3742) 0.0) (not $x55137))))
 (let (($x30194 (<= (+ A_3 ?x1741 ?x1358 S_1) 0.0)))
 (let ((?x54231 (* (/ 1.0 3.0) A_4)))
 (let ((?x54821 (* (/ 1.0 3.0) A_2)))
 (let ((?x54397 (* (- (/ 2.0 3.0)) A_0)))
 (let ((?x54418 (* (/ 2.0 3.0) S_0)))
 (let ((?x55515 (* (/ 2.0 3.0) A_1)))
 (let ((?x55395 (* (- (/ 1.0 3.0)) A_5)))
 (let ((?x57440 (* (- (/ 1.0 3.0)) A_3)))
 (let ((?x53655 (* (/ 1.0 3.0) S_5)))
 (let (($x55250 (<= (+ ?x53655 ?x57440 (* (/ 1.0 3.0) C) ?x55395 ?x55515 ?x1837 ?x54418 ?x54397 ?x54821 ?x54231) 0.0)))
 (let (($x182967 (or $x1844 $x2826 (<= (+ S_5 A_4 ?x1189 ?x1177 A_1 ?x1842 ?x1787) 0.0) (<= (+ ?x3752 ?x3680 ?x4599 ?x3664 A_1 ?x1842 ?x4597 ?x3751 ?x3742) 0.0))))
 (let (($x4374 (<= (+ A_3 ?x1741 ?x1436 S_2) 0.0)))
 (let (($x3149 (<= (+ ?x1436 A_1 S_2 L_0 ?x1092 ?x1787) 0.0)))
 (let (($x12785 (<= (+ ?x1819 A_4 ?x1436 ?x1092 ?x10395 L_0 A_1 ?x1177) 0.0)))
 (let (($x311257 (or $x1839 $x2573 $x3655 $x5520 (<= (+ ?x3758 ?x4599 ?x8087 ?x6545 ?x1837 ?x4597 ?x3751 ?x3750) 0.0) (<= (+ ?x3758 ?x8087 ?x6545 ?x1837 ?x3722 ?x3753 ?x3762 ?x3750) 0.0))))
 (let (($x29441 (<= (+ ?x1819 A_4 A_2 C (* (- 2.0) A_1) S_1 A_0 ?x1177) 0.0)))
 (let (($x28101 (<= (+ A_2 ?x1819 (* 2.0 C) ?x1358 S_1) 0.0)))
 (let ((?x6264 (* (- 2.0) S_3)))
 (let ((?x1284 (* (- 1.0) A_4)))
 (let (($x2024 (<= (+ ?x1284 S_4 A_2 ?x1837) 0.0)))
 (let (($x809722 (or $x2024 $x3045 $x3655 (<= (+ ?x1284 C A_1 S_4 ?x6264 S_0 ?x1092 A_2) 0.0))))
 (let (($x4844 (<= (+ ?x1177 A_2) 0.0)))
 (let (($x167579 (or $x3045 $x3655 $x4844 (<= (+ ?x3680 ?x4595 ?x3784 (* (- (/ 1.0 2.0)) S_3) ?x4597 ?x3751 ?x6545) 0.0))))
 (let (($x164513 (or $x1873 $x3045 $x3655 $x5575 (<= (+ ?x3784 ?x3752 ?x3664 ?x1837 ?x4597 ?x3751 ?x3750) 0.0))))
 (let (($x279670 (or $x1875 $x4220 $x6207 $x7281 (<= (+ ?x1284 (* 3.0 C) A_1 ?x1741 S_0 ?x1092 A_2) 0.0))))
 (let (($x328633 (or $x10405 (<= (+ ?x1177 A_2 S_3 ?x1358 ?x1847 A_0 ?x1787) 0.0) $x27936)))
 (let (($x331104 (or $x2506 $x2688 $x3256 $x30194 (<= (+ A_3 C ?x1741 ?x1358 S_1 A_0 ?x1436) 0.0))))
 (let (($x57034 (<= (+ ?x53655 ?x57440 (* (- (/ 2.0 3.0)) C) ?x55395 ?x55515 ?x1842 ?x54418 ?x54397 ?x54821 ?x54231) 0.0)))
 (let (($x5479 (<= (+ S_5 A_4 ?x1189 ?x1177 A_2 ?x1842 (* (- 2.0) C)) 0.0)))
 (let (($x23178 (<= (+ S_5 ?x1189 A_1 (* 2.0 C) ?x1741) 0.0)))
 (let (($x342658 (or $x2506 $x7281 (<= (+ S_5 A_3 C ?x1189 ?x1741 A_1 ?x1436) 0.0) $x23178)))
 (let (($x14903 (<= (+ S_5 ?x1177 ?x1707 A_1 (* (- 2.0) S_2) S_0 ?x1092 A_2) 0.0)))
 (let (($x12353 (<= (+ ?x3758 ?x4599 ?x8087 ?x6534 A_1 ?x1842 ?x4597 ?x3751 ?x3750) 0.0)))
 (let (($x5297 (<= (+ ?x1284 A_3 S_4 ?x1436 A_1 ?x1842 ?x1787) 0.0)))
 (let (($x114706 (or $x1844 $x2826 (<= (+ S_5 ?x1284 A_2 ?x1842 (* (- 2.0) C)) 0.0) (<= (+ ?x3752 ?x3758 ?x1787 ?x3784 ?x1842 ?x4597 ?x3751 ?x6545) 0.0))))
 (let (($x121768 (or $x1844 $x2826 (<= (+ S_5 ?x1284 A_3 ?x1842 ?x1707) 0.0) (<= (+ ?x3752 ?x3758 (* (- (/ 3.0 2.0)) C) ?x3784 ?x1842 ?x4597 ?x3751 ?x3750) 0.0))))
 (let (($x308026 (or $x1711 $x2573 $x4230 $x7281 (<= (+ ?x3752 ?x3758 ?x1741 ?x6545 ?x4597 ?x3751 ?x3750) 0.0) (<= (+ ?x3752 ?x3758 ?x4595 ?x1741 ?x6545 ?x3722 ?x3753 ?x3762 ?x3750) 0.0))))
 (let (($x111953 (or $x1844 $x2826 (<= (+ ?x3752 ?x3758 ?x1787 ?x6534 A_1 ?x1842 ?x4597 ?x3751 ?x3750) 0.0) (<= (+ S_5 ?x1284 A_3 ?x1436 A_1 ?x1842 (* (- 2.0) C)) 0.0))))
 (let (($x102746 (or $x1844 $x2826 (<= (+ S_5 ?x1189 A_3 ?x1436 A_1 ?x1842 ?x1787) 0.0) (<= (+ ?x3752 ?x3664 ?x6534 ?x4599 A_1 ?x1842 ?x4597 ?x3751 ?x3750) 0.0))))
 (let (($x22039 (<= (+ ?x6534 ?x3752 ?x1787 ?x3664 A_1 ?x1842 ?x4597 ?x3751 ?x3742) 0.0)))
 (let (($x5429 (<= (+ S_5 A_4 ?x1189 ?x1436 A_1 ?x1842 (* (- 2.0) C)) 0.0)))
 (let (($x318394 (or $x2494 $x3535 (<= (+ ?x1787 A_3 ?x1741 ?x1358 ?x10395 ?x1847 A_0 ?x1436) 0.0) $x17229)))
 (and (or $x1844 (<= (+ ?x1284 S_4 A_1 ?x1842) 0.0)) (<= (+ S_5 (* (- 4.0) C) ?x1842) 0.0) (or $x1844 (<= (+ S_4 ?x1436 A_1 ?x1842 (* (- 2.0) C)) 0.0)) (<= (+ S_4 ?x1707 ?x1842) 0.0) (or $x1844 (<= (+ S_5 ?x1436 A_1 ?x1842 ?x1707) 0.0)) (or $x1844 (<= (+ S_5 ?x1189 A_1 ?x1842) 0.0)) (or $x1844 (<= (+ ?x1436 A_1) 0.0)) (or $x1844 (<= (+ ?x1177 S_3 A_1 ?x1842) 0.0)) (or $x2823 $x3655 (<= (+ S_5 ?x1284 A_1 ?x1837) 0.0)) (<= (+ S_5 (* (- 2.0) C) ?x1741) 0.0) (or $x1875 $x3672 $x4101 $x7281) (or $x1716 $x3655 $x4681) (or $x2065 $x2494 $x3149) (or $x2065 $x2494 $x3245) (or $x2494 $x4101) (or $x2494 $x4220) (or $x1844 (<= (+ S_5 ?x1284 A_1 ?x1842 ?x1787) 0.0)) (or $x1844 (<= (+ S_5 ?x1177 A_1 ?x1842 (* (- 2.0) C)) 0.0)) (or $x1844 (<= (+ ?x1177 S_4 A_1 ?x1842 ?x1787) 0.0)) $x318394 (or $x2823 $x6836) (<= (+ S_4 ?x1837 (* (- 2.0) C)) 0.0) (or $x1873 $x6073 $x6836) (<= (+ S_3 ?x1842 (* (- 2.0) C)) 0.0) (or $x1844 (<= (+ ?x1436 S_3 A_1 ?x1842 ?x1787) 0.0)) (or $x2065 $x2573 $x3256 (<= (+ A_2 C ?x1741 ?x1358 S_1) 0.0)) (or $x2854 $x6836) (or $x1844 (<= (+ A_1 ?x1092 ?x1787) 0.0) $x5297 $x12353) (or $x2573 $x4230 $x7281 (<= (+ S_5 ?x1284 ?x1741 A_2) 0.0)) (or $x3476 $x10405) (or (<= (+ ?x1177 S_3 ?x1847 A_0) 0.0) $x10405 $x27936) (or $x2351 $x3655 (<= (+ S_5 C A_1 ?x1837 ?x1189) 0.0)) (or $x1749 $x1844 $x5429 $x22039) (<= (+ S_5 ?x1837 ?x1707) 0.0) (or $x2506 $x3256 $x6836) (or $x2506 $x6836 $x50509) (or $x3655 $x4681 (<= (+ ?x1177 S_4 A_1 ?x1837) 0.0)) (or $x1869 $x2506 $x3045 $x50509 $x55137) (or $x2065 $x2494 $x3402) (or $x2351 $x6836) (or $x4844 $x10405 $x27936) (or (<= (+ A_2 S_5 C ?x1189 ?x1741) 0.0) $x2573 $x4101 $x7281) (or $x2506 $x5520 $x6836) (or $x1875 $x3826 $x7281 $x23178) (or $x1869 $x5288 $x40105) (or $x1869 $x2826 $x17878 $x39949) (or $x1869 $x2826 $x5429 $x22039) (or $x4844 $x6836) (or $x2573 $x4101 (<= (+ A_2 C ?x1741 ?x1358 S_1) 0.0)) (or $x1716 $x1875 $x2018 $x3256 $x14869) (or $x1716 (<= (+ A_2 ?x1837 ?x1358 S_1) 0.0) $x50509) $x102746 (or $x1716 $x3256 (<= (+ A_2 ?x1837 ?x1358 S_1) 0.0)) $x111953 (or $x1716 $x6073 (<= (+ A_2 ?x1837 ?x1358 S_1) 0.0)) $x308026 $x121768 $x114706 (or $x1869 $x2131 $x2826 $x42272) (or $x2826 (not (<= (+ A_1 ?x1092 ?x1787) 0.0)) $x5297 $x12353) (or $x1716 $x3476 $x28101 $x28246) (or (<= (+ ?x1284 A_2 C) 0.0) $x2573 $x4220 $x7281) (or $x2065 $x2542 $x3149 $x12785 $x41511) (or $x1844 $x2826 (<= (+ S_5 ?x1177 A_2 ?x1842 ?x1707) 0.0) $x14903) (or $x1749 $x1844 $x5479 $x57034) (or $x2494 $x4230) (or $x2065 $x2573 (not $x3619) $x3476 $x7529 $x39760 $x41294) $x342658 (or $x1863 $x2065 $x2573 $x3256 $x14869 $x29441) (or $x1869 $x2826 $x5479 $x57034) (or $x4681 $x6836) (or $x1716 $x5935 (<= (+ A_2 ?x1837 ?x1358 S_1) 0.0)) (or $x2573 $x5520 (<= (+ A_2 ?x1837 ?x1358 S_1) 0.0)) $x331104 (or (<= (+ ?x1177 A_2 S_3 ?x1358 L_0 ?x1787) 0.0) $x10405 $x27936) $x328633 (or $x10405 $x27936 $x40366) (or $x1875 $x2018 $x3245 $x41511) (or $x1715 $x1716 $x2506 $x3256 $x3672 $x28246) $x279670 (or $x1716 $x2024 $x3655) (or $x1715 $x2065 $x2542 $x3245 $x31320) $x164513 (or $x2506 $x3402 $x3672 $x30194 $x141784) (or $x2542 $x3476 $x11464) (or $x1716 $x5575 (<= (+ A_2 ?x1837 ?x1358 S_1) 0.0)) (or $x1716 $x3256 (<= (+ A_2 C ?x1741 ?x1358 S_1) 0.0) $x30194) (or $x1753 $x2065 $x2573 $x3256 $x28101) (or $x1737 $x2494 $x3149) (or $x1737 $x1753 $x3256 $x3672 $x28101) (or $x2065 $x2129 $x3256 $x6860 $x28101) (or $x1869 $x2826 $x40366 $x45689) (or $x1869 $x2826 $x5426 $x22886) (or $x3655 $x4844 (<= (+ ?x1177 C A_1) 0.0)) $x167579 $x809722 (or $x1716 $x2101 $x2129 $x3256 $x28246) (or $x1753 $x2542 $x3149 (<= (+ ?x1819 A_3 C ?x1436 S_2) 0.0)) (or $x2542 $x3476 (<= (+ ?x1819 A_3 C ?x1436 S_2) 0.0)) (or $x1716 $x1863 $x1867 $x3256 $x14869 $x29441) (or $x1715 $x2065 $x2573 $x3256 $x28101 $x29441) $x311257 (or $x1867 $x2542 $x3149 $x12785 $x41511) (or $x1875 $x3149 $x4374) (or $x2494 $x3402 $x4374) (or $x2573 $x4230 (<= (+ A_2 C ?x1741 ?x1358 S_1) 0.0)) (or $x1869 $x2826 $x8855 $x39949) $x182967 (or $x1749 $x2506 $x3655 $x50509 $x55250) (or $x2506 $x3045 $x3655 $x21967 $x50509) (or $x1875 $x3256 $x6777 $x6860 $x14869 $x30194 $x91392) $x803706 (or $x1749 $x1844 $x40366 $x45689) $x179601 $x187109 $x185084 $x818707 (or $x2854 $x3655 (<= (+ S_5 ?x1177 ?x1787 A_1 ?x1837) 0.0)) $x806122 (or $x1869 $x1875 $x3476 $x8207 $x8849 $x11464) (or $x1715 $x2018 $x2101 $x2542 $x3245) (or $x2494 $x3245 $x4374) (or $x2506 $x5935 $x6836) (or $x1716 $x1875 $x3402 $x30194) (or $x2024 $x6836) $x190460 (or $x2573 $x4220 (<= (+ A_2 C ?x1741 ?x1358 S_1) 0.0)) (or $x2506 $x2688 $x4220) $x184371 (or $x1869 (not $x2575) $x2506 $x3402 $x6207 $x10923 $x24260 $x93583) (or $x1737 $x1869 $x2101 $x3476 $x3672 $x4016 $x4598) (or $x1737 $x2101 $x3402 $x3672 $x30194) (or $x2129 $x2542 $x3245 (<= (+ ?x1819 A_3 C ?x1436 S_2) 0.0)) (or $x1753 $x3535 $x3672 $x18331 $x18518) $x808162 (or $x1869 $x2506 $x2575 $x3402 $x4017 $x4567 $x10923 $x93583) $x193101 (or $x3402 $x3672 $x10987 $x17229) $x799954 (or $x1869 $x2506 $x3476 $x3672 $x4016 $x4598 $x55720 $x93538) (or $x1875 $x3476 $x3672 $x28246 $x142043) (or $x2129 $x2506 $x3256 $x6860 $x28246 $x91392) (or $x1711 $x2065 $x2573 $x3402 $x7281 $x19737 $x106887) (or $x1867 $x2101 $x3245 $x41511) (or $x1844 $x5426 $x40105) (or $x1749 $x1844 $x22886 $x39949) $x206260 $x206487 (or (<= (+ ?x1177 S_3 A_1 L_0 ?x1092 ?x1787) 0.0) $x10405 $x27936) (or $x1863 $x3283 $x37879 $x39074) (or $x2065 $x2542 $x3245 $x31320 $x41511) $x218551 $x809234 (or $x1737 $x2101 $x3476 $x3672 $x4016 $x4598 $x7529 $x106878) (or $x2506 $x2688 $x4230) $x223317 $x825473 (or $x2065 $x2688 $x3402 (<= (+ A_2 C ?x1741 ?x1358 S_1) 0.0)) $x827597 $x207125 (or $x1749 $x1844 $x2131 $x42272) $x223071 (or $x1749 $x2389 $x3476 $x7529 $x8849 $x11464) $x829819 (or $x1875 $x2018 $x3256 $x4178 $x6777 $x6860) $x294516 (or $x1844 $x5288 $x40105) (or $x1749 $x1844 $x17878 $x39949) $x831851 (or $x1716 $x2506 $x3476 $x3672 $x4016 $x4598 $x7529 $x11072) (or $x1715 $x3283 $x10405 $x39074) (or $x1716 $x2506 $x3402 $x4017 $x4567 $x6207 $x7281 $x11073 $x24260) $x839782 (or $x1753 $x2506 $x3256 $x6860 $x28246 $x91392) (or $x1869 $x2506 $x3476 $x3826 $x8207 $x26076 $x55720 $x93538) (or $x1749 $x1844 $x8855 $x39949) (or $x1839 $x2344 $x3655 $x5575 $x39747) $x238607 $x835518 (or $x1875 $x2542 $x3535 $x4178 $x17224 $x18331 $x18518) (or $x9491 $x10405 $x27936) (or $x1716 $x1834 $x1867 $x3476 $x3619 $x39760 $x41294) $x303910 $x841525 (or $x2065 $x2506 $x3256 $x6860 $x14869 $x29764) (or $x2389 $x3476 $x6860 $x11464) (or $x2506 $x2688 $x4101) (or $x1867 $x1869 $x2506 $x3476 $x8207 $x19636) (or $x1749 $x2065 $x2506 $x3476 $x7529 $x19636) (or $x1867 $x2101 $x3256 $x4178 $x6777 $x6860) (or $x1867 $x1875 $x2542 $x3535 $x17118 $x17224) (or $x3262 $x10405 $x27936) (or $x2101 $x2542 $x3826 $x17524 $x41511) (or $x1753 $x2542 $x3535 $x3826 $x17524) (or $x2506 $x3045 $x3655 $x5935 $x21967) (or $x2494 $x3402 $x3826 $x114126) (or $x2506 $x2688 $x3402 $x3826 $x141784) (or $x1737 $x2506 $x3402 $x6207 $x7281 $x24260) $x796545 (or $x2506 $x3402 $x4017 $x4567 $x6207 $x7281 $x10923 $x11073 $x24260 $x93583) (or $x1715 $x3262 $x10405 $x36324) (or $x2542 $x3535 $x3826 $x17524 $x29181 $x41511) (or $x2542 $x3535 $x3826 $x17118 $x17224 $x17524 $x29181) (or $x1873 $x5575 $x6836) $x791933 (or $x1867 $x2101 $x3256 $x6777 $x6860 $x14869) $x830343 (or $x1749 $x2065 $x2506 $x3476 $x7529 $x26076) (or $x1749 $x2506 $x3476 $x4016 $x4598 $x7529 $x11072 $x26076 $x55720) $x826627 (or $x2506 $x3476 $x6860 $x28246 $x142043) $x793638 (<= (+ ?x1092 L_0 S_0) 0.0) (<= (+ ?x1787 ?x1092 L_0 S_1) 0.0) (<= (+ ?x1436 S_2 L_0) 0.0) (<= (+ ?x1436 ?x1787 S_3 L_0) 0.0) (<= (+ ?x1436 (* (- 2.0) C) S_4 L_0) 0.0) (<= (+ ?x1436 S_5 ?x1707 L_0) 0.0) (<= (+ S_4 (* (- 4.0) C) L_0 ?x1092) 0.0) (<= (+ S_5 (* (- 5.0) C) L_0 ?x1092) 0.0) (<= (+ S_5 ?x1189 L_0) 0.0) (<= (+ ?x1847 S_0) 0.0) (<= (+ ?x1842 S_1) 0.0) (<= (+ ?x1819 S_4) 0.0) (<= (+ ?x1837 S_2) 0.0) (<= (+ S_5 ?x1358 L_0 (* (- 4.0) C)) 0.0) (<= (+ ?x1358 S_1 L_0) 0.0) (<= (+ ?x1741 S_3) 0.0) (<= (+ (* (- 2.0) C) S_2 L_0 ?x1092) 0.0) (<= (+ ?x1358 ?x1787 S_2 L_0) 0.0) (<= (+ S_5 ?x1284 L_0 ?x1787) 0.0) (<= (+ ?x1284 S_4 L_0) 0.0) (<= (+ ?x1707 ?x1358 S_4 L_0) 0.0) (<= (+ ?x1177 S_3 L_0) 0.0) (<= (+ S_3 L_0 ?x1092 ?x1707) 0.0) (<= (+ ?x1177 ?x1787 S_4 L_0) 0.0) (<= (+ S_5 ?x1177 L_0 (* (- 2.0) C)) 0.0) (<= (+ S_3 ?x1358 L_0 (* (- 2.0) C)) 0.0)))))))))))))))))))))))))))))))))))))))))))))))))))))))))))))))))))))))))))))))))))))))))))))))))))))))))))))))))))))))))))))))))))))))))))))))))))))))))))))))))))))))))))))))))))))))))))))))))))))))))))))))))))))))))))))))))))))))))))))))))
(check-sat)
